(set-logic ALL)
(declare-fun i1 () Int)
(declare-fun it176 () Int)
(declare-fun it177 () Int)
(declare-fun i2 () Int)
(declare-fun it178 () Int)
(declare-fun i3 () Int)
(declare-fun it179 () Int)
(declare-fun i4 () Int)
(declare-fun it180 () Int)
(declare-fun i5 () Int)
(declare-fun it181 () Int)
(declare-fun i6 () Int)
(declare-fun i7 () Int)
(declare-fun it182 () Int)
(declare-fun it314 () Int)
(declare-fun it315 () Int)
(declare-fun it316 () Int)
(declare-fun it317 () Int)
(declare-fun it318 () Int)
(declare-fun it319 () Int)
(declare-fun it320 () Int)
(declare-fun it117 () Int)
(assert (= (+ i1 (- 1)) 0))
(assert (= (+ it176 (- 2)) 0))
(assert (= (+ (* i2 (- 1)) it177 (- 1)) 0))
(assert (= (+ (* i3 (- 1)) it178) 0))
(assert (= (+ (* i4 (- 1)) it179) 0))
(assert (= (+ (* i5 (- 1)) it180) 0))
(assert (= (+ (* i6 (- 1)) it181) 0))
(assert (= (+ it182 (* i7 (- 1))) 0))
(assert (and (= (+ it176 (- 2)) 0) (> it181 0) (> it178 0)))
(assert (= (+ it314 (- 3)) 0))
(assert (= (+ it315 (* it177 (- 1)) (- 1)) 0))
(assert (= (+ it316 (* it178 (- 1))) 0))
(assert (= (+ it317 (* it178 (- 1))) 0))
(assert (= (+ (* it182 (- 1)) it318) 0))
(assert (= (+ it319 (* it181 (- 1))) 0))
(assert (= (+ (* it182 (- 1)) it320) 0))
(assert (let ((a!1 (> (+ (* (exp it319 5) (+ 0 (- 1)))
                 (* (exp it317 2) (+ 0 (- 1)))
                 (+ 0 it318))
              (+ 0 0)))
      (a!2 (* (* (exp 9 (+ it117 (- 1))) (+ 0 it318)) (+ 0 3)))
      (a!3 (* (exp (exp 4 (+ it117 (- 1))) (+ 0 2)) (exp it317 2)))
      (a!4 (* (* (exp it319 3) (exp 9 (+ it117 (- 1)))) (+ 0 (- 3))))
      (a!6 (> (+ (* (exp it319 5) (+ 0 (- 1)))
                 (* (exp it317 2) (+ 0 (- 4)))
                 (* (exp it319 3) (+ 0 (- 2)))
                 (+ 0 (* it318 3)))
              (+ 0 0)))
      (a!7 (* (* (exp it319 3) (exp 9 (+ it117 (- 1)))) (+ 0 (- 1)))))
(let ((a!5 (> (+ a!2
                 (* (exp it319 5) (+ 0 (- 1)))
                 (* a!3 (+ 0 (- 4)))
                 (exp it319 3)
                 a!4)
              (+ 0 0)))
      (a!8 (+ (* (exp 9 (+ it117 (- 1))) (+ 0 it318))
              (* (exp it319 5) (+ 0 (- 1)))
              (* a!3 (+ 0 (- 1)))
              (exp it319 3)
              a!7)))
  (and (> (* it317 2) 0)
       (>= (+ it314 (- 3)) 0)
       a!1
       a!5
       (> it317 0)
       (>= (+ it117 (- 1)) 0)
       a!6
       (> a!8 (+ 0 0))
       (>= (+ (* it314 (- 1)) 3) 0)))))
(check-sat)
